59619
108,125,144,145,321,335,421,545,644,819,840,880,951,966,1020,1051,1232,1512,1551,1562,1805,1921,2157,2364,2489,2559,2907,3090,3577,3588,3722,3731,3936,4016,4062,4065,4123,4295,4400,4402,4463,4664,4758,4901,5049,5080,5095,5336,5411,5434,5450,5523,5595,5634,5669,5692,5748,5849,5937,5968,5983,6145,6164,6314,6473,6894,7009,7083,7086,7182,7278,7322,7336,7560,7616,7625,7659,7935,8112,8120,8203,8252,8362,8392,8542,8685,8944,8947,8977,9119,9120,9231,9451,9478,9613,9673,9705,9712,9849,9907,9975
